nK = 1888;
nT = 6;
nI = 14;
L = 35;
TT = 405;
np = 1;
nc = 3;
b = [33, 20, 54, 52, 25, 46, 57, 61, 44, 33, 26, 27, 45, 33];
d = [68, 66, 81, 121, 52, 83, 143, 136, 120, 105, 89, 131, 90, 144];
m = [2.2, 2.5, 2.2, 1.9, 1.4, 1.4, 2.5, 1.9, 2.3, 1.3, 1.8, 2.4, 1.8, 2.3];
pt = [0.28, 0.3, 0.21, 0.27, 0.3, 0.28];
st = [16.52, 16.5, 8.61, 14.04, 12.9, 16.52];
arc = {<1, 0, 1, 1, 0, 0, 0, [1, 1, 1, 1, 1, 1]>, <2, 1, 2, 1, 0, 0, 0, [1, 1, 1, 1, 1, 1]>, <3, 2, 3, 1, 0, 0, 0, [1, 1, 1, 1, 1, 1]>, <4, 3, 4, 1, 0, 0, 0, [1, 1, 1, 1, 1, 1]>, <5, 4, 5, 1, 0, 0, 0, [1, 1, 1, 1, 1, 1]>, <6, 5, 6, 1, 0, 0, 0, [1, 1, 1, 1, 1, 1]>, <7, 6, 7, 1, 0, 0, 0, [1, 1, 1, 1, 1, 1]>, <8, 7, 8, 1, 0, 0, 0, [1, 1, 1, 1, 1, 1]>, <9, 8, 9, 1, 0, 0, 0, [1, 1, 1, 1, 1, 1]>, <10, 9, 10, 1, 0, 0, 0, [1, 1, 1, 1, 1, 1]>, <11, 10, 11, 1, 0, 0, 0, [1, 1, 1, 1, 1, 1]>, <12, 11, 12, 1, 0, 0, 0, [1, 1, 1, 1, 1, 1]>, <13, 12, 13, 1, 0, 0, 0, [1, 1, 1, 1, 1, 1]>, <14, 13, 14, 1, 0, 0, 0, [1, 1, 1, 1, 1, 1]>, <15, 14, 15, 1, 0, 0, 0, [1, 1, 1, 1, 1, 1]>, <16, 15, 16, 1, 0, 0, 0, [1, 1, 1, 1, 1, 1]>, <17, 16, 17, 1, 0, 0, 0, [1, 1, 1, 1, 1, 1]>, <18, 17, 18, 1, 0, 0, 0, [1, 1, 1, 1, 1, 1]>, <19, 18, 19, 1, 0, 0, 0, [1, 1, 1, 1, 1, 1]>, <20, 19, 20, 1, 0, 0, 0, [1, 1, 1, 1, 1, 1]>, <21, 20, 21, 1, 0, 0, 0, [1, 1, 1, 1, 1, 1]>, <22, 21, 22, 1, 0, 0, 0, [1, 1, 1, 1, 1, 1]>, <23, 22, 23, 1, 0, 0, 0, [1, 1, 1, 1, 1, 1]>, <24, 23, 24, 1, 0, 0, 0, [1, 1, 1, 1, 1, 1]>, <25, 24, 25, 1, 0, 0, 0, [1, 1, 1, 1, 1, 1]>, <26, 25, 26, 1, 0, 0, 0, [1, 1, 1, 1, 1, 1]>, <27, 26, 27, 1, 0, 0, 0, [1, 1, 1, 1, 1, 1]>, <28, 27, 28, 1, 0, 0, 0, [1, 1, 1, 1, 1, 1]>, <29, 28, 29, 1, 0, 0, 0, [1, 1, 1, 1, 1, 1]>, <30, 29, 30, 1, 0, 0, 0, [1, 1, 1, 1, 1, 1]>, <31, 30, 31, 1, 0, 0, 0, [1, 1, 1, 1, 1, 1]>, <32, 31, 32, 1, 0, 0, 0, [1, 1, 1, 1, 1, 1]>, <33, 32, 33, 1, 0, 0, 0, [1, 1, 1, 1, 1, 1]>, <34, 33, 34, 1, 0, 0, 0, [1, 1, 1, 1, 1, 1]>, <35, 34, 35, 1, 0, 0, 0, [1, 1, 1, 1, 1, 1]>, <36, 0, 18, 18, 1, 0, 1, [0, 0, 0, 1, 1, 0]>, <37, 1, 19, 18, 1, 0, 1, [0, 0, 0, 1, 1, 0]>, <38, 2, 20, 18, 1, 0, 1, [0, 0, 0, 1, 1, 0]>, <39, 3, 21, 18, 1, 0, 1, [0, 0, 0, 1, 1, 0]>, <40, 4, 22, 18, 1, 0, 1, [0, 0, 0, 1, 1, 0]>, <41, 5, 23, 18, 1, 0, 1, [0, 0, 0, 1, 1, 0]>, <42, 6, 24, 18, 1, 0, 1, [0, 0, 0, 1, 1, 0]>, <43, 8, 26, 18, 1, 0, 1, [0, 0, 0, 1, 1, 0]>, <44, 9, 27, 18, 1, 0, 1, [0, 0, 0, 1, 1, 0]>, <45, 10, 28, 18, 1, 0, 1, [0, 0, 0, 1, 1, 0]>, <46, 11, 29, 18, 1, 0, 1, [0, 0, 0, 1, 1, 0]>, <47, 12, 30, 18, 1, 0, 1, [0, 0, 0, 1, 1, 0]>, <48, 13, 31, 18, 1, 0, 1, [0, 0, 0, 1, 1, 0]>, <49, 14, 32, 18, 1, 0, 1, [0, 0, 0, 1, 1, 0]>, <50, 15, 33, 18, 1, 0, 1, [0, 0, 0, 1, 1, 0]>, <51, 16, 34, 18, 1, 0, 1, [0, 0, 0, 1, 1, 0]>, <52, 17, 35, 18, 1, 0, 1, [0, 0, 0, 1, 1, 0]>, <53, 0, 20, 20, 2, 0, 1, [0, 1, 1, 0, 0, 0]>, <54, 1, 21, 20, 2, 0, 1, [0, 1, 1, 0, 0, 0]>, <55, 2, 22, 20, 2, 0, 1, [0, 1, 1, 0, 0, 0]>, <56, 3, 23, 20, 2, 0, 1, [0, 1, 1, 0, 0, 0]>, <57, 4, 24, 20, 2, 0, 1, [0, 1, 1, 0, 0, 0]>, <58, 5, 25, 20, 2, 0, 1, [0, 1, 1, 0, 0, 0]>, <59, 6, 26, 20, 2, 0, 1, [0, 1, 1, 0, 0, 0]>, <60, 7, 27, 20, 2, 0, 1, [0, 1, 1, 0, 0, 0]>, <61, 8, 28, 20, 2, 0, 1, [0, 1, 1, 0, 0, 0]>, <62, 9, 29, 20, 2, 0, 1, [0, 1, 1, 0, 0, 0]>, <63, 10, 30, 20, 2, 0, 1, [0, 1, 1, 0, 0, 0]>, <64, 11, 31, 20, 2, 0, 1, [0, 1, 1, 0, 0, 0]>, <65, 12, 32, 20, 2, 0, 1, [0, 1, 1, 0, 0, 0]>, <66, 13, 33, 20, 2, 0, 1, [0, 1, 1, 0, 0, 0]>, <67, 14, 34, 20, 2, 0, 1, [0, 1, 1, 0, 0, 0]>, <68, 15, 35, 20, 2, 0, 1, [0, 1, 1, 0, 0, 0]>, <69, 0, 19, 19, 3, 1, 0, [0, 0, 0, 0, 1, 1]>, <70, 1, 20, 19, 3, 1, 0, [0, 0, 0, 0, 1, 1]>, <71, 2, 21, 19, 3, 1, 0, [0, 0, 0, 0, 1, 1]>, <72, 3, 22, 19, 3, 1, 0, [0, 0, 0, 0, 1, 1]>, <73, 4, 23, 19, 3, 1, 0, [0, 0, 0, 0, 1, 1]>, <74, 5, 24, 19, 3, 1, 0, [0, 0, 0, 0, 1, 1]>, <75, 6, 25, 19, 3, 1, 0, [0, 0, 0, 0, 1, 1]>, <76, 7, 26, 19, 3, 1, 0, [0, 0, 0, 0, 1, 1]>, <77, 8, 27, 19, 3, 1, 0, [0, 0, 0, 0, 1, 1]>, <78, 9, 28, 19, 3, 1, 0, [0, 0, 0, 0, 1, 1]>, <79, 10, 29, 19, 3, 1, 0, [0, 0, 0, 0, 1, 1]>, <80, 11, 30, 19, 3, 1, 0, [0, 0, 0, 0, 1, 1]>, <81, 12, 31, 19, 3, 1, 0, [0, 0, 0, 0, 1, 1]>, <82, 13, 32, 19, 3, 1, 0, [0, 0, 0, 0, 1, 1]>, <83, 14, 33, 19, 3, 1, 0, [0, 0, 0, 0, 1, 1]>, <84, 15, 34, 19, 3, 1, 0, [0, 0, 0, 0, 1, 1]>, <85, 16, 35, 19, 3, 1, 0, [0, 0, 0, 0, 1, 1]>, <86, 0, 21, 21, 4, 0, 1, [0, 0, 1, 1, 0, 0]>, <87, 1, 22, 21, 4, 0, 1, [0, 0, 1, 1, 0, 0]>, <88, 2, 23, 21, 4, 0, 1, [0, 0, 1, 1, 0, 0]>, <89, 3, 24, 21, 4, 0, 1, [0, 0, 1, 1, 0, 0]>, <90, 4, 25, 21, 4, 0, 1, [0, 0, 1, 1, 0, 0]>, <91, 5, 26, 21, 4, 0, 1, [0, 0, 1, 1, 0, 0]>, <92, 6, 27, 21, 4, 0, 1, [0, 0, 1, 1, 0, 0]>, <93, 7, 28, 21, 4, 0, 1, [0, 0, 1, 1, 0, 0]>, <94, 8, 29, 21, 4, 0, 1, [0, 0, 1, 1, 0, 0]>, <95, 9, 30, 21, 4, 0, 1, [0, 0, 1, 1, 0, 0]>, <96, 10, 31, 21, 4, 0, 1, [0, 0, 1, 1, 0, 0]>, <97, 11, 32, 21, 4, 0, 1, [0, 0, 1, 1, 0, 0]>, <98, 12, 33, 21, 4, 0, 1, [0, 0, 1, 1, 0, 0]>, <99, 13, 34, 21, 4, 0, 1, [0, 0, 1, 1, 0, 0]>, <100, 14, 35, 21, 4, 0, 1, [0, 0, 1, 1, 0, 0]>, <101, 0, 22, 22, 5, 0, 0, [0, 0, 1, 1, 0, 0]>, <102, 1, 23, 22, 5, 0, 0, [0, 0, 1, 1, 0, 0]>, <103, 2, 24, 22, 5, 0, 0, [0, 0, 1, 1, 0, 0]>, <104, 3, 25, 22, 5, 0, 0, [0, 0, 1, 1, 0, 0]>, <105, 4, 26, 22, 5, 0, 0, [0, 0, 1, 1, 0, 0]>, <106, 5, 27, 22, 5, 0, 0, [0, 0, 1, 1, 0, 0]>, <107, 6, 28, 22, 5, 0, 0, [0, 0, 1, 1, 0, 0]>, <108, 7, 29, 22, 5, 0, 0, [0, 0, 1, 1, 0, 0]>, <109, 8, 30, 22, 5, 0, 0, [0, 0, 1, 1, 0, 0]>, <110, 9, 31, 22, 5, 0, 0, [0, 0, 1, 1, 0, 0]>, <111, 10, 32, 22, 5, 0, 0, [0, 0, 1, 1, 0, 0]>, <112, 11, 33, 22, 5, 0, 0, [0, 0, 1, 1, 0, 0]>, <113, 12, 34, 22, 5, 0, 0, [0, 0, 1, 1, 0, 0]>, <114, 13, 35, 22, 5, 0, 0, [0, 0, 1, 1, 0, 0]>, <115, 0, 17, 17, 6, 0, 0, [0, 1, 1, 0, 0, 0]>, <116, 1, 18, 17, 6, 0, 0, [0, 1, 1, 0, 0, 0]>, <117, 2, 19, 17, 6, 0, 0, [0, 1, 1, 0, 0, 0]>, <118, 3, 20, 17, 6, 0, 0, [0, 1, 1, 0, 0, 0]>, <119, 4, 21, 17, 6, 0, 0, [0, 1, 1, 0, 0, 0]>, <120, 5, 22, 17, 6, 0, 0, [0, 1, 1, 0, 0, 0]>, <121, 6, 23, 17, 6, 0, 0, [0, 1, 1, 0, 0, 0]>, <122, 9, 26, 17, 6, 0, 0, [0, 1, 1, 0, 0, 0]>, <123, 10, 27, 17, 6, 0, 0, [0, 1, 1, 0, 0, 0]>, <124, 11, 28, 17, 6, 0, 0, [0, 1, 1, 0, 0, 0]>, <125, 12, 29, 17, 6, 0, 0, [0, 1, 1, 0, 0, 0]>, <126, 13, 30, 17, 6, 0, 0, [0, 1, 1, 0, 0, 0]>, <127, 14, 31, 17, 6, 0, 0, [0, 1, 1, 0, 0, 0]>, <128, 15, 32, 17, 6, 0, 0, [0, 1, 1, 0, 0, 0]>, <129, 16, 33, 17, 6, 0, 0, [0, 1, 1, 0, 0, 0]>, <130, 17, 34, 17, 6, 0, 0, [0, 1, 1, 0, 0, 0]>, <131, 18, 35, 17, 6, 0, 0, [0, 1, 1, 0, 0, 0]>, <132, 0, 20, 20, 7, 0, 0, [0, 0, 1, 1, 0, 0]>, <133, 1, 21, 20, 7, 0, 0, [0, 0, 1, 1, 0, 0]>, <134, 2, 22, 20, 7, 0, 0, [0, 0, 1, 1, 0, 0]>, <135, 3, 23, 20, 7, 0, 0, [0, 0, 1, 1, 0, 0]>, <136, 4, 24, 20, 7, 0, 0, [0, 0, 1, 1, 0, 0]>, <137, 5, 25, 20, 7, 0, 0, [0, 0, 1, 1, 0, 0]>, <138, 6, 26, 20, 7, 0, 0, [0, 0, 1, 1, 0, 0]>, <139, 7, 27, 20, 7, 0, 0, [0, 0, 1, 1, 0, 0]>, <140, 8, 28, 20, 7, 0, 0, [0, 0, 1, 1, 0, 0]>, <141, 9, 29, 20, 7, 0, 0, [0, 0, 1, 1, 0, 0]>, <142, 10, 30, 20, 7, 0, 0, [0, 0, 1, 1, 0, 0]>, <143, 11, 31, 20, 7, 0, 0, [0, 0, 1, 1, 0, 0]>, <144, 12, 32, 20, 7, 0, 0, [0, 0, 1, 1, 0, 0]>, <145, 13, 33, 20, 7, 0, 0, [0, 0, 1, 1, 0, 0]>, <146, 14, 34, 20, 7, 0, 0, [0, 0, 1, 1, 0, 0]>, <147, 15, 35, 20, 7, 0, 0, [0, 0, 1, 1, 0, 0]>, <148, 0, 21, 21, 8, 0, 0, [0, 1, 1, 0, 0, 0]>, <149, 1, 22, 21, 8, 0, 0, [0, 1, 1, 0, 0, 0]>, <150, 2, 23, 21, 8, 0, 0, [0, 1, 1, 0, 0, 0]>, <151, 3, 24, 21, 8, 0, 0, [0, 1, 1, 0, 0, 0]>, <152, 4, 25, 21, 8, 0, 0, [0, 1, 1, 0, 0, 0]>, <153, 5, 26, 21, 8, 0, 0, [0, 1, 1, 0, 0, 0]>, <154, 6, 27, 21, 8, 0, 0, [0, 1, 1, 0, 0, 0]>, <155, 7, 28, 21, 8, 0, 0, [0, 1, 1, 0, 0, 0]>, <156, 8, 29, 21, 8, 0, 0, [0, 1, 1, 0, 0, 0]>, <157, 9, 30, 21, 8, 0, 0, [0, 1, 1, 0, 0, 0]>, <158, 10, 31, 21, 8, 0, 0, [0, 1, 1, 0, 0, 0]>, <159, 11, 32, 21, 8, 0, 0, [0, 1, 1, 0, 0, 0]>, <160, 12, 33, 21, 8, 0, 0, [0, 1, 1, 0, 0, 0]>, <161, 13, 34, 21, 8, 0, 0, [0, 1, 1, 0, 0, 0]>, <162, 14, 35, 21, 8, 0, 0, [0, 1, 1, 0, 0, 0]>, <163, 0, 23, 23, 9, 0, 1, [1, 1, 0, 0, 0, 0]>, <164, 1, 24, 23, 9, 0, 1, [1, 1, 0, 0, 0, 0]>, <165, 2, 25, 23, 9, 0, 1, [1, 1, 0, 0, 0, 0]>, <166, 3, 26, 23, 9, 0, 1, [1, 1, 0, 0, 0, 0]>, <167, 4, 27, 23, 9, 0, 1, [1, 1, 0, 0, 0, 0]>, <168, 5, 28, 23, 9, 0, 1, [1, 1, 0, 0, 0, 0]>, <169, 6, 29, 23, 9, 0, 1, [1, 1, 0, 0, 0, 0]>, <170, 7, 30, 23, 9, 0, 1, [1, 1, 0, 0, 0, 0]>, <171, 8, 31, 23, 9, 0, 1, [1, 1, 0, 0, 0, 0]>, <172, 9, 32, 23, 9, 0, 1, [1, 1, 0, 0, 0, 0]>, <173, 10, 33, 23, 9, 0, 1, [1, 1, 0, 0, 0, 0]>, <174, 11, 34, 23, 9, 0, 1, [1, 1, 0, 0, 0, 0]>, <175, 12, 35, 23, 9, 0, 1, [1, 1, 0, 0, 0, 0]>, <176, 0, 20, 20, 10, 0, 1, [1, 1, 0, 0, 0, 0]>, <177, 1, 21, 20, 10, 0, 1, [1, 1, 0, 0, 0, 0]>, <178, 2, 22, 20, 10, 0, 1, [1, 1, 0, 0, 0, 0]>, <179, 3, 23, 20, 10, 0, 1, [1, 1, 0, 0, 0, 0]>, <180, 4, 24, 20, 10, 0, 1, [1, 1, 0, 0, 0, 0]>, <181, 5, 25, 20, 10, 0, 1, [1, 1, 0, 0, 0, 0]>, <182, 6, 26, 20, 10, 0, 1, [1, 1, 0, 0, 0, 0]>, <183, 7, 27, 20, 10, 0, 1, [1, 1, 0, 0, 0, 0]>, <184, 8, 28, 20, 10, 0, 1, [1, 1, 0, 0, 0, 0]>, <185, 9, 29, 20, 10, 0, 1, [1, 1, 0, 0, 0, 0]>, <186, 10, 30, 20, 10, 0, 1, [1, 1, 0, 0, 0, 0]>, <187, 11, 31, 20, 10, 0, 1, [1, 1, 0, 0, 0, 0]>, <188, 12, 32, 20, 10, 0, 1, [1, 1, 0, 0, 0, 0]>, <189, 13, 33, 20, 10, 0, 1, [1, 1, 0, 0, 0, 0]>, <190, 14, 34, 20, 10, 0, 1, [1, 1, 0, 0, 0, 0]>, <191, 15, 35, 20, 10, 0, 1, [1, 1, 0, 0, 0, 0]>, <192, 0, 20, 20, 11, 1, 0, [0, 0, 1, 1, 0, 0]>, <193, 1, 21, 20, 11, 1, 0, [0, 0, 1, 1, 0, 0]>, <194, 2, 22, 20, 11, 1, 0, [0, 0, 1, 1, 0, 0]>, <195, 3, 23, 20, 11, 1, 0, [0, 0, 1, 1, 0, 0]>, <196, 4, 24, 20, 11, 1, 0, [0, 0, 1, 1, 0, 0]>, <197, 5, 25, 20, 11, 1, 0, [0, 0, 1, 1, 0, 0]>, <198, 6, 26, 20, 11, 1, 0, [0, 0, 1, 1, 0, 0]>, <199, 7, 27, 20, 11, 1, 0, [0, 0, 1, 1, 0, 0]>, <200, 8, 28, 20, 11, 1, 0, [0, 0, 1, 1, 0, 0]>, <201, 9, 29, 20, 11, 1, 0, [0, 0, 1, 1, 0, 0]>, <202, 10, 30, 20, 11, 1, 0, [0, 0, 1, 1, 0, 0]>, <203, 11, 31, 20, 11, 1, 0, [0, 0, 1, 1, 0, 0]>, <204, 12, 32, 20, 11, 1, 0, [0, 0, 1, 1, 0, 0]>, <205, 13, 33, 20, 11, 1, 0, [0, 0, 1, 1, 0, 0]>, <206, 14, 34, 20, 11, 1, 0, [0, 0, 1, 1, 0, 0]>, <207, 15, 35, 20, 11, 1, 0, [0, 0, 1, 1, 0, 0]>, <208, 0, 20, 20, 12, 0, 1, [1, 1, 0, 0, 0, 0]>, <209, 1, 21, 20, 12, 0, 1, [1, 1, 0, 0, 0, 0]>, <210, 2, 22, 20, 12, 0, 1, [1, 1, 0, 0, 0, 0]>, <211, 3, 23, 20, 12, 0, 1, [1, 1, 0, 0, 0, 0]>, <212, 4, 24, 20, 12, 0, 1, [1, 1, 0, 0, 0, 0]>, <213, 5, 25, 20, 12, 0, 1, [1, 1, 0, 0, 0, 0]>, <214, 6, 26, 20, 12, 0, 1, [1, 1, 0, 0, 0, 0]>, <215, 7, 27, 20, 12, 0, 1, [1, 1, 0, 0, 0, 0]>, <216, 8, 28, 20, 12, 0, 1, [1, 1, 0, 0, 0, 0]>, <217, 9, 29, 20, 12, 0, 1, [1, 1, 0, 0, 0, 0]>, <218, 10, 30, 20, 12, 0, 1, [1, 1, 0, 0, 0, 0]>, <219, 11, 31, 20, 12, 0, 1, [1, 1, 0, 0, 0, 0]>, <220, 12, 32, 20, 12, 0, 1, [1, 1, 0, 0, 0, 0]>, <221, 13, 33, 20, 12, 0, 1, [1, 1, 0, 0, 0, 0]>, <222, 14, 34, 20, 12, 0, 1, [1, 1, 0, 0, 0, 0]>, <223, 15, 35, 20, 12, 0, 1, [1, 1, 0, 0, 0, 0]>, <224, 0, 22, 22, 13, 0, 0, [1, 0, 0, 0, 0, 1]>, <225, 1, 23, 22, 13, 0, 0, [1, 0, 0, 0, 0, 1]>, <226, 2, 24, 22, 13, 0, 0, [1, 0, 0, 0, 0, 1]>, <227, 3, 25, 22, 13, 0, 0, [1, 0, 0, 0, 0, 1]>, <228, 4, 26, 22, 13, 0, 0, [1, 0, 0, 0, 0, 1]>, <229, 5, 27, 22, 13, 0, 0, [1, 0, 0, 0, 0, 1]>, <230, 6, 28, 22, 13, 0, 0, [1, 0, 0, 0, 0, 1]>, <231, 7, 29, 22, 13, 0, 0, [1, 0, 0, 0, 0, 1]>, <232, 8, 30, 22, 13, 0, 0, [1, 0, 0, 0, 0, 1]>, <233, 9, 31, 22, 13, 0, 0, [1, 0, 0, 0, 0, 1]>, <234, 10, 32, 22, 13, 0, 0, [1, 0, 0, 0, 0, 1]>, <235, 11, 33, 22, 13, 0, 0, [1, 0, 0, 0, 0, 1]>, <236, 12, 34, 22, 13, 0, 0, [1, 0, 0, 0, 0, 1]>, <237, 13, 35, 22, 13, 0, 0, [1, 0, 0, 0, 0, 1]>, <238, 0, 20, 20, 14, 0, 0, [1, 0, 0, 0, 0, 1]>, <239, 1, 21, 20, 14, 0, 0, [1, 0, 0, 0, 0, 1]>, <240, 2, 22, 20, 14, 0, 0, [1, 0, 0, 0, 0, 1]>, <241, 3, 23, 20, 14, 0, 0, [1, 0, 0, 0, 0, 1]>, <242, 4, 24, 20, 14, 0, 0, [1, 0, 0, 0, 0, 1]>, <243, 5, 25, 20, 14, 0, 0, [1, 0, 0, 0, 0, 1]>, <244, 6, 26, 20, 14, 0, 0, [1, 0, 0, 0, 0, 1]>, <245, 7, 27, 20, 14, 0, 0, [1, 0, 0, 0, 0, 1]>, <246, 8, 28, 20, 14, 0, 0, [1, 0, 0, 0, 0, 1]>, <247, 9, 29, 20, 14, 0, 0, [1, 0, 0, 0, 0, 1]>, <248, 10, 30, 20, 14, 0, 0, [1, 0, 0, 0, 0, 1]>, <249, 11, 31, 20, 14, 0, 0, [1, 0, 0, 0, 0, 1]>, <250, 12, 32, 20, 14, 0, 0, [1, 0, 0, 0, 0, 1]>, <251, 13, 33, 20, 14, 0, 0, [1, 0, 0, 0, 0, 1]>, <252, 14, 34, 20, 14, 0, 0, [1, 0, 0, 0, 0, 1]>, <253, 15, 35, 20, 14, 0, 0, [1, 0, 0, 0, 0, 1]>};
